! LARGEPRINT OPT wB97X-3c

%pal
nprocs xx
end

%maxcore 3000

%geom Scan
B <atom 1> <atom 2> = <initial dist>, <final dist>, <steps>
end
Convergence loose
end 

*xyz 0 1
[coordinates]
*