! LARGEPRINT TIGHTSCF OPTTS FREQ IRC wB97X-3c

%pal
nprocs xx
end

%maxcore 3000

%geom
Calc_Hess true
end

*xyz 0 1
[coordinates]
*